#p opt um06l/gen/auto geom=connectivity int=grid=ultrafine pseudo=read scf=(xqc,intrep,maxconventionalcycle=350) pop=(full,nbo,hirshfeld)

Title Card Required

0 4
 S                 -5.06082823    0.87363222    1.73305958
 S                 -3.32742541    1.60362157   -1.44818386
 Mo                -1.41092619    2.21535483   -0.15417737
 S                 -1.57337591    4.45830671   -1.81334167
 S                  0.00784431    3.69523244    1.10827397
 S                  0.03340719    1.39183816   -1.80362198
 S                  1.54503307    0.76791141    1.69014216
 Mo                 1.45726542    2.21519973   -0.13898675
 S                  1.99435979    4.40403108   -1.76495667
 S                  3.20275625    3.92450561    1.17878143
 S                  3.38667469    1.52499559   -1.40664427
 S                  4.92549222    0.83734679    1.83303718
 Mo                -2.86759777   -0.21425479    0.04091622
 S                 -3.37335661   -2.02297594    1.54607421
 Co                 0.00852328   -0.17004870    0.03773132
 Mo                -1.44451476   -2.79654783    0.36577957
 S                 -0.01735050   -2.01151073    2.01145517
 S                 -0.04064521   -4.30029075   -0.78291844
 Mo                 2.85773236   -0.27583351    0.06566875
 Mo                 1.39697803   -2.82587613    0.37337583
 S                  3.33077979   -2.09392110    1.56570476
 H                  4.48826742   -0.00423312    2.79855577
 H                 -5.46043726   -0.35632100    2.12856786
 H                 -2.72926398    4.24418293   -2.48285793
 H                  1.27104287    3.98617633   -2.82435868
 S                 -1.62218254   -1.32788331   -1.52784564
 S                 -1.52280681    0.76947402    1.67501627
 H                  3.15272689    3.38318505    2.41275406
 S                  5.04268255   -1.21877804   -1.29505982
 H                  5.62449384   -2.03609684   -0.38608210
 H                  5.90937216   -0.20546558   -1.09440071
 H                  1.03382424    5.26274520   -1.34951681
 H                 -2.12554320    5.36327842   -0.97961606
 H                 -2.72736060   -4.45323097   -2.28999198
 H                 -4.16070826    0.93837767    2.73679700
 S                 -3.46594292   -4.01737539   -1.24691236
 H                 -3.45347584   -5.22634089   -0.65279496
 S                  3.37825807   -4.12911864   -1.27885890
 H                  2.61973540   -4.38120318   -2.36629092
 H                  3.16205368   -5.35552582   -0.76614994
 S                 -5.10194527   -1.06205416   -1.28364841
 H                 -5.68265920   -1.87470425   -0.36931742
 S                 -3.18312364    3.91348632    1.19707861
 H                 -2.92423610    3.65500658    2.49491704
 H                 -4.42582371    3.37922114    1.22279754
 H                 -5.92787860   -0.02444077   -1.03809193
 H                  4.41769944    3.39856013    0.90233486
 H                  5.98882362    0.05161537    1.57075282
 H                  1.94717690   -4.30021130    1.04601099
 H                 -2.01633384   -4.25401403    1.05292932
 S                  1.58250873   -1.35278778   -1.51124981

 1 23 1.0 35 1.0
 2 3 1.0 13 1.0
 3 5 1.0 6 1.0 27 1.0
 4 24 1.0 33 1.0
 5 8 1.0
 6 8 1.0
 7 8 1.0 19 1.0
 8 11 1.0
 9 25 1.0 32 1.0
 10 28 1.0 47 1.0
 11 19 1.0
 12 22 1.0 48 1.0
 13 14 1.0 26 1.0 27 1.0
 14 16 1.0
 15
 16 17 1.0 18 1.0 26 1.0
 17 20 1.0
 18 20 1.0
 19 21 1.0 51 1.0
 20 21 1.0 51 1.0
 21
 22
 23
 24
 25
 26
 27
 28
 29 30 1.0 31 1.0
 30
 31
 32
 33
 34 36 1.0
 35
 36 37 1.0
 37
 38 39 1.0 40 1.0
 39
 40
 41 42 1.0 46 1.0
 42
 43 44 1.0 45 1.0
 44
 45
 46
 47
 48
 49
 50
 51

@/zfs/curium/hshabbi/basis_sets/H.gbs
****
@/zfs/curium/hshabbi/basis_sets/S.gbs
****
@/zfs/curium/hshabbi/basis_sets/Co.gbs
****
@/zfs/curium/hshabbi/basis_sets/Mo.gbs
****






